networks/zoo_76_844/zoo_76_844.txt
Number of groups: 41
Flow 2: {4 42} 
Flow 3: {8 5} {5 43} 
Flow 19: {24 62} 
Flow 23: {29 67} 
Flow 32: {2 1} {1 39} 
Flow 33: {4 3} {3 41} 
Flow 50: {2 10} {10 24} {24 19} {19 22} {22 60} 
Flow 66: {3 4} 
Flow 133: {1 35} {35 73} 
Flow 133: {6 20} {20 5} {5 8} {8 2} 
Flow 198: {9 20} {20 58} 
Flow 213: {12 29} {29 11} {11 38} {38 76} 
Flow 220: {10 2} {2 8} {8 46} 
Flow 259: {31 32} {32 33} {33 14} {14 52} 
Flow 314: {13 7} {7 1} {1 4} {4 12} {12 50} 
Flow 330: {13 35} {35 36} {36 37} {37 31} {31 69} 
Flow 365: {15 35} {35 1} {1 2} {2 40} 
Flow 372: {32 31} {31 11} {11 49} 
Flow 378: {27 28} {28 66} 
Flow 407: {17 35} {35 25} {25 63} 
Flow 416: {34 72} 
Flow 431: {7 13} {13 51} 
Flow 436: {28 21} {21 7} {7 35} {35 18} {18 56} 
Flow 440: {19 28} {28 27} {27 26} {26 64} 
Flow 460: {20 9} {9 24} {24 10} {10 48} 
Flow 529: {22 19} {19 23} {23 61} 
Flow 546: {23 19} {19 24} {24 9} {9 47} 
Flow 605: {25 35} {35 14} {14 16} {16 54} 
Flow 607: {21 28} {28 19} {19 57} 
Flow 620: {16 14} Flow 630: {16 14} {14 35} {35 17} {17 55} 
Flow 639: {26 34} {34 16} {16 33} {33 32} {32 70} 
Flow 692: {30 12} {12 4} {4 1} {1 7} {7 45} 
Flow 706: {35 13} 
Flow 708: {36 35} {35 15} {15 53} 
Flow 715: {33 16} {16 34} {34 26} {26 27} {27 65} 
Flow 718: {11 29} {29 12} {12 30} {30 68} 
Flow 744: {5 20} {20 6} {6 44} 
Flow 759: {35 7} {7 21} {21 59} 
Flow 771: {14 33} {33 71} 
Flow 826: {37 36} {36 74} 
Flow 844: {38 11} {11 31} {31 37} {37 75} 
Time taken running everything: 15 seconds
